1347999
46, 81, 94, 107, 16, 25, 83, 3, 63, 20, 44, 32, 95, 43, 85, 61, 6, 30, 103, 79, 67, 4, 92, 56, 74, 15, 23, 22, 64, 49, 91, 11, 89, 97, 104, 58, 54, 102, 100, 53, 17, 80, 48, 21, 13, 93, 96, 62, 19, 73, 99, 71, 47, 105, 87, 76, 18, 50, 7, 88, 65, 12, 60, 42, 33, 78, 108, 106, 55, 40, 68, 28, 36, 8, 70, 14, 39, 31, 69, 27, 86, 75, 72, 57, 41, 38, 26, 37, 9, 77, 66, 10, 24, 109, 90, 82, 45, 5, 35, 1, 101, 98, 52, 34, 29, 59, 84, 51, 2
